PARAMETER_FILE = even/LKH_uncomplete_graph/x5/seg/par/random186.par
PROBLEM_FILE = even/LKH_uncomplete_graph/x5/seg/mat/random186.tsp
Successes/Runs = 0/10
Cost.min = 1042, Cost.avg = 1042.00, Cost.max = 1042
Gap.min = 0.0000%, Gap.avg = 0.0000%, Gap.max = 0.0000%
Trials.min = 1000, Trials.avg = 1000.0, Trials.max = 1000
Time.min = 0.44 sec., Time.avg = 0.58 sec., Time.max = 0.65 sec.
Time.total = 5.97 sec.
请按任意键继续. . . 
